p cnf 256 1
256 0
w 1 0.277569
w 2 1 0
w 2 -1 1
w 3 2 0
w 3 -2 1
w 4 3 1
w 4 -3 0
w 5 4 1
w 5 -4 0
w 6 5 0.645792
w 6 -5 0.998257
w 7 6 1
w 7 -6 0
w 8 7 0
w 8 -7 1
w 9 8 0.0529643
w 9 -8 0.270405
w 10 9 0
w 10 -9 1
w 11 10 1
w 11 -10 0
w 12 11 0
w 12 -11 1
w 13 12 1
w 13 -12 0
w 14 13 0
w 14 -13 1
w 15 14 1
w 15 -14 0
w 16 15 1
w 16 -15 0
w 17 1 0.345692
w 17 -1 0.587577
w 18 17 2 1
w 18 17 -2 0
w 18 -17 2 1
w 18 -17 -2 1
w 19 18 3 1
w 19 18 -3 0
w 19 -18 3 0
w 19 -18 -3 0
w 20 19 4 1
w 20 19 -4 0
w 20 -19 4 0
w 20 -19 -4 0
w 21 20 5 0
w 21 20 -5 1
w 21 -20 5 1
w 21 -20 -5 0
w 22 21 6 0
w 22 21 -6 1
w 22 -21 6 1
w 22 -21 -6 1
w 23 22 7 1
w 23 22 -7 0
w 23 -22 7 1
w 23 -22 -7 1
w 24 23 8 0.470086
w 24 23 -8 0.694463
w 24 -23 8 0.368816
w 24 -23 -8 0.837521
w 25 24 9 1
w 25 24 -9 1
w 25 -24 9 0
w 25 -24 -9 1
w 26 25 10 0.224233
w 26 25 -10 0.80778
w 26 -25 10 0.310632
w 26 -25 -10 0.208653
w 27 26 11 0
w 27 26 -11 1
w 27 -26 11 0
w 27 -26 -11 1
w 28 27 12 0.898253
w 28 27 -12 0.499397
w 28 -27 12 0.205447
w 28 -27 -12 0.983631
w 29 28 13 1
w 29 28 -13 0
w 29 -28 13 0
w 29 -28 -13 1
w 30 29 14 0.99828
w 30 29 -14 0.14903
w 30 -29 14 0.317156
w 30 -29 -14 0.835801
w 31 30 15 0
w 31 30 -15 0
w 31 -30 15 1
w 31 -30 -15 1
w 32 31 16 1
w 32 31 -16 0
w 32 -31 16 0
w 32 -31 -16 1
w 33 17 0.279752
w 33 -17 0.965216
w 34 33 18 1
w 34 33 -18 0
w 34 -33 18 0
w 34 -33 -18 1
w 35 34 19 0
w 35 34 -19 1
w 35 -34 19 0
w 35 -34 -19 0
w 36 35 20 0
w 36 35 -20 1
w 36 -35 20 1
w 36 -35 -20 0
w 37 36 21 1
w 37 36 -21 1
w 37 -36 21 1
w 37 -36 -21 0
w 38 37 22 1
w 38 37 -22 1
w 38 -37 22 0
w 38 -37 -22 1
w 39 38 23 0.923196
w 39 38 -23 0.706039
w 39 -38 23 0.0916927
w 39 -38 -23 0.888412
w 40 39 24 0.727131
w 40 39 -24 0.87571
w 40 -39 24 0.819698
w 40 -39 -24 0.260822
w 41 40 25 0
w 41 40 -25 1
w 41 -40 25 0
w 41 -40 -25 0
w 42 41 26 0
w 42 41 -26 1
w 42 -41 26 1
w 42 -41 -26 1
w 43 42 27 0
w 43 42 -27 0
w 43 -42 27 0
w 43 -42 -27 1
w 44 43 28 1
w 44 43 -28 0
w 44 -43 28 1
w 44 -43 -28 0
w 45 44 29 0.404277
w 45 44 -29 0.798633
w 45 -44 29 0.904454
w 45 -44 -29 0.292689
w 46 45 30 1
w 46 45 -30 0
w 46 -45 30 1
w 46 -45 -30 1
w 47 46 31 0
w 47 46 -31 1
w 47 -46 31 0
w 47 -46 -31 0
w 48 47 32 1
w 48 47 -32 1
w 48 -47 32 1
w 48 -47 -32 0
w 49 33 1
w 49 -33 0
w 50 49 34 1
w 50 49 -34 0
w 50 -49 34 1
w 50 -49 -34 0
w 51 50 35 0
w 51 50 -35 0
w 51 -50 35 1
w 51 -50 -35 0
w 52 51 36 0
w 52 51 -36 0
w 52 -51 36 1
w 52 -51 -36 1
w 53 52 37 0
w 53 52 -37 0
w 53 -52 37 1
w 53 -52 -37 1
w 54 53 38 1
w 54 53 -38 1
w 54 -53 38 0
w 54 -53 -38 1
w 55 54 39 1
w 55 54 -39 0
w 55 -54 39 1
w 55 -54 -39 0
w 56 55 40 1
w 56 55 -40 0
w 56 -55 40 1
w 56 -55 -40 0
w 57 56 41 0.718225
w 57 56 -41 0.523022
w 57 -56 41 0.505726
w 57 -56 -41 0.194827
w 58 57 42 1
w 58 57 -42 0
w 58 -57 42 0
w 58 -57 -42 0
w 59 58 43 0
w 59 58 -43 0
w 59 -58 43 1
w 59 -58 -43 0
w 60 59 44 1
w 60 59 -44 1
w 60 -59 44 0
w 60 -59 -44 1
w 61 60 45 0
w 61 60 -45 0
w 61 -60 45 1
w 61 -60 -45 1
w 62 61 46 0
w 62 61 -46 1
w 62 -61 46 0
w 62 -61 -46 0
w 63 62 47 1
w 63 62 -47 0
w 63 -62 47 0
w 63 -62 -47 1
w 64 63 48 1
w 64 63 -48 0
w 64 -63 48 0
w 64 -63 -48 1
w 65 49 1
w 65 -49 0
w 66 65 50 0.647427
w 66 65 -50 0.383827
w 66 -65 50 0.100279
w 66 -65 -50 0.716598
w 67 66 51 1
w 67 66 -51 0
w 67 -66 51 0
w 67 -66 -51 0
w 68 67 52 1
w 68 67 -52 1
w 68 -67 52 0
w 68 -67 -52 1
w 69 68 53 1
w 69 68 -53 0
w 69 -68 53 0
w 69 -68 -53 1
w 70 69 54 1
w 70 69 -54 1
w 70 -69 54 0
w 70 -69 -54 1
w 71 70 55 1
w 71 70 -55 1
w 71 -70 55 0
w 71 -70 -55 1
w 72 71 56 0.187453
w 72 71 -56 0.701314
w 72 -71 56 0.614082
w 72 -71 -56 0.3176
w 73 72 57 0
w 73 72 -57 1
w 73 -72 57 0
w 73 -72 -57 1
w 74 73 58 0.0971354
w 74 73 -58 0.596245
w 74 -73 58 0.654174
w 74 -73 -58 0.654224
w 75 74 59 1
w 75 74 -59 1
w 75 -74 59 0
w 75 -74 -59 1
w 76 75 60 0.473281
w 76 75 -60 0.173593
w 76 -75 60 0.775746
w 76 -75 -60 0.569483
w 77 76 61 1
w 77 76 -61 1
w 77 -76 61 1
w 77 -76 -61 0
w 78 77 62 0
w 78 77 -62 0
w 78 -77 62 1
w 78 -77 -62 0
w 79 78 63 1
w 79 78 -63 0
w 79 -78 63 1
w 79 -78 -63 1
w 80 79 64 0.394794
w 80 79 -64 0.96463
w 80 -79 64 0.43557
w 80 -79 -64 0.741941
w 81 65 0
w 81 -65 1
w 82 81 66 0
w 82 81 -66 0
w 82 -81 66 1
w 82 -81 -66 1
w 83 82 67 0.842568
w 83 82 -67 0.350784
w 83 -82 67 0.495137
w 83 -82 -67 0.29183
w 84 83 68 0
w 84 83 -68 0
w 84 -83 68 1
w 84 -83 -68 1
w 85 84 69 1
w 85 84 -69 1
w 85 -84 69 0
w 85 -84 -69 1
w 86 85 70 0.719123
w 86 85 -70 0.461773
w 86 -85 70 0.283648
w 86 -85 -70 0.50047
w 87 86 71 0.248278
w 87 86 -71 0.93604
w 87 -86 71 0.598508
w 87 -86 -71 0.61389
w 88 87 72 0
w 88 87 -72 0
w 88 -87 72 0
w 88 -87 -72 1
w 89 88 73 1
w 89 88 -73 0
w 89 -88 73 0
w 89 -88 -73 0
w 90 89 74 1
w 90 89 -74 1
w 90 -89 74 0
w 90 -89 -74 0
w 91 90 75 0
w 91 90 -75 1
w 91 -90 75 1
w 91 -90 -75 0
w 92 91 76 0.710842
w 92 91 -76 0.297656
w 92 -91 76 0.455118
w 92 -91 -76 0.99449
w 93 92 77 0.311686
w 93 92 -77 0.242768
w 93 -92 77 0.734166
w 93 -92 -77 0.910194
w 94 93 78 0.242234
w 94 93 -78 0.816731
w 94 -93 78 0.778568
w 94 -93 -78 0.389189
w 95 94 79 0.481779
w 95 94 -79 0.348623
w 95 -94 79 0.606016
w 95 -94 -79 0.535773
w 96 95 80 0.713772
w 96 95 -80 0.760091
w 96 -95 80 0.239188
w 96 -95 -80 0.163655
w 97 81 0.330342
w 97 -81 0.707276
w 98 97 82 1
w 98 97 -82 1
w 98 -97 82 1
w 98 -97 -82 0
w 99 98 83 1
w 99 98 -83 1
w 99 -98 83 1
w 99 -98 -83 0
w 100 99 84 0
w 100 99 -84 1
w 100 -99 84 1
w 100 -99 -84 0
w 101 100 85 0
w 101 100 -85 1
w 101 -100 85 0
w 101 -100 -85 0
w 102 101 86 1
w 102 101 -86 1
w 102 -101 86 1
w 102 -101 -86 0
w 103 102 87 1
w 103 102 -87 1
w 103 -102 87 1
w 103 -102 -87 0
w 104 103 88 0
w 104 103 -88 1
w 104 -103 88 0
w 104 -103 -88 0
w 105 104 89 0
w 105 104 -89 1
w 105 -104 89 1
w 105 -104 -89 1
w 106 105 90 0.39437
w 106 105 -90 0.871358
w 106 -105 90 0.628845
w 106 -105 -90 0.141549
w 107 106 91 1
w 107 106 -91 1
w 107 -106 91 0
w 107 -106 -91 0
w 108 107 92 1
w 108 107 -92 1
w 108 -107 92 1
w 108 -107 -92 0
w 109 108 93 1
w 109 108 -93 0
w 109 -108 93 0
w 109 -108 -93 0
w 110 109 94 0
w 110 109 -94 0
w 110 -109 94 0
w 110 -109 -94 1
w 111 110 95 0
w 111 110 -95 1
w 111 -110 95 0
w 111 -110 -95 1
w 112 111 96 1
w 112 111 -96 0
w 112 -111 96 1
w 112 -111 -96 0
w 113 97 0
w 113 -97 1
w 114 113 98 0.587524
w 114 113 -98 0.22775
w 114 -113 98 0.0931583
w 114 -113 -98 0.447302
w 115 114 99 0
w 115 114 -99 0
w 115 -114 99 1
w 115 -114 -99 0
w 116 115 100 1
w 116 115 -100 1
w 116 -115 100 0
w 116 -115 -100 0
w 117 116 101 0
w 117 116 -101 0
w 117 -116 101 1
w 117 -116 -101 0
w 118 117 102 0
w 118 117 -102 1
w 118 -117 102 1
w 118 -117 -102 0
w 119 118 103 1
w 119 118 -103 0
w 119 -118 103 0
w 119 -118 -103 1
w 120 119 104 0
w 120 119 -104 1
w 120 -119 104 1
w 120 -119 -104 0
w 121 120 105 0.32753
w 121 120 -105 0.300206
w 121 -120 105 0.551913
w 121 -120 -105 0.572883
w 122 121 106 0
w 122 121 -106 1
w 122 -121 106 0
w 122 -121 -106 0
w 123 122 107 0
w 123 122 -107 0
w 123 -122 107 0
w 123 -122 -107 1
w 124 123 108 0
w 124 123 -108 1
w 124 -123 108 0
w 124 -123 -108 0
w 125 124 109 0.352267
w 125 124 -109 0.723487
w 125 -124 109 0.493984
w 125 -124 -109 0.410514
w 126 125 110 0
w 126 125 -110 0
w 126 -125 110 1
w 126 -125 -110 1
w 127 126 111 0
w 127 126 -111 1
w 127 -126 111 0
w 127 -126 -111 1
w 128 127 112 0.0947801
w 128 127 -112 0.448421
w 128 -127 112 0.914954
w 128 -127 -112 0.529982
w 129 113 0.132654
w 129 -113 0.304855
w 130 129 114 0
w 130 129 -114 1
w 130 -129 114 0
w 130 -129 -114 1
w 131 130 115 0
w 131 130 -115 1
w 131 -130 115 1
w 131 -130 -115 0
w 132 131 116 1
w 132 131 -116 0
w 132 -131 116 1
w 132 -131 -116 1
w 133 132 117 0
w 133 132 -117 1
w 133 -132 117 0
w 133 -132 -117 0
w 134 133 118 1
w 134 133 -118 1
w 134 -133 118 1
w 134 -133 -118 0
w 135 134 119 1
w 135 134 -119 1
w 135 -134 119 0
w 135 -134 -119 1
w 136 135 120 0.789911
w 136 135 -120 0.268834
w 136 -135 120 0.827179
w 136 -135 -120 0.556859
w 137 136 121 0
w 137 136 -121 1
w 137 -136 121 0
w 137 -136 -121 0
w 138 137 122 0.849572
w 138 137 -122 0.657057
w 138 -137 122 0.850179
w 138 -137 -122 0.459914
w 139 138 123 1
w 139 138 -123 0
w 139 -138 123 0
w 139 -138 -123 1
w 140 139 124 0.957101
w 140 139 -124 0.294307
w 140 -139 124 0.346739
w 140 -139 -124 0.689951
w 141 140 125 0
w 141 140 -125 1
w 141 -140 125 1
w 141 -140 -125 1
w 142 141 126 0
w 142 141 -126 0
w 142 -141 126 1
w 142 -141 -126 1
w 143 142 127 0.0951282
w 143 142 -127 0.139199
w 143 -142 127 0.127685
w 143 -142 -127 0.425835
w 144 143 128 0
w 144 143 -128 0
w 144 -143 128 1
w 144 -143 -128 1
w 145 129 1
w 145 -129 0
w 146 145 130 0.722299
w 146 145 -130 0.757037
w 146 -145 130 0.179098
w 146 -145 -130 0.48059
w 147 146 131 0
w 147 146 -131 1
w 147 -146 131 0
w 147 -146 -131 0
w 148 147 132 1
w 148 147 -132 0
w 148 -147 132 0
w 148 -147 -132 1
w 149 148 133 1
w 149 148 -133 0
w 149 -148 133 0
w 149 -148 -133 0
w 150 149 134 0.400432
w 150 149 -134 0.187604
w 150 -149 134 0.334077
w 150 -149 -134 0.284178
w 151 150 135 1
w 151 150 -135 0
w 151 -150 135 1
w 151 -150 -135 0
w 152 151 136 0.920631
w 152 151 -136 0.64804
w 152 -151 136 0.00501043
w 152 -151 -136 0.401221
w 153 152 137 0
w 153 152 -137 0
w 153 -152 137 0
w 153 -152 -137 1
w 154 153 138 1
w 154 153 -138 1
w 154 -153 138 0
w 154 -153 -138 0
w 155 154 139 1
w 155 154 -139 0
w 155 -154 139 1
w 155 -154 -139 1
w 156 155 140 1
w 156 155 -140 1
w 156 -155 140 1
w 156 -155 -140 0
w 157 156 141 0
w 157 156 -141 1
w 157 -156 141 0
w 157 -156 -141 0
w 158 157 142 1
w 158 157 -142 0
w 158 -157 142 0
w 158 -157 -142 1
w 159 158 143 0.828231
w 159 158 -143 0.749332
w 159 -158 143 0.411835
w 159 -158 -143 0.734253
w 160 159 144 0.108775
w 160 159 -144 0.803944
w 160 -159 144 0.872941
w 160 -159 -144 0.79832
w 161 145 0
w 161 -145 1
w 162 161 146 0
w 162 161 -146 0
w 162 -161 146 1
w 162 -161 -146 0
w 163 162 147 0
w 163 162 -147 1
w 163 -162 147 1
w 163 -162 -147 0
w 164 163 148 0
w 164 163 -148 0
w 164 -163 148 0
w 164 -163 -148 1
w 165 164 149 0.856731
w 165 164 -149 0.740885
w 165 -164 149 0.803155
w 165 -164 -149 0.650999
w 166 165 150 0
w 166 165 -150 1
w 166 -165 150 0
w 166 -165 -150 1
w 167 166 151 0
w 167 166 -151 1
w 167 -166 151 1
w 167 -166 -151 1
w 168 167 152 0.19081
w 168 167 -152 0.516357
w 168 -167 152 0.806885
w 168 -167 -152 0.706462
w 169 168 153 0.392305
w 169 168 -153 0.850962
w 169 -168 153 0.539744
w 169 -168 -153 0.0572221
w 170 169 154 0
w 170 169 -154 1
w 170 -169 154 1
w 170 -169 -154 0
w 171 170 155 0
w 171 170 -155 0
w 171 -170 155 1
w 171 -170 -155 1
w 172 171 156 0.451173
w 172 171 -156 0.452236
w 172 -171 156 0.881224
w 172 -171 -156 0.754542
w 173 172 157 0.0528341
w 173 172 -157 0.861855
w 173 -172 157 0.175086
w 173 -172 -157 0.0227645
w 174 173 158 1
w 174 173 -158 0
w 174 -173 158 0
w 174 -173 -158 0
w 175 174 159 0.593576
w 175 174 -159 0.212225
w 175 -174 159 0.770998
w 175 -174 -159 0.13332
w 176 175 160 0
w 176 175 -160 1
w 176 -175 160 1
w 176 -175 -160 1
w 177 161 1
w 177 -161 0
w 178 177 162 0
w 178 177 -162 0
w 178 -177 162 1
w 178 -177 -162 0
w 179 178 163 0
w 179 178 -163 1
w 179 -178 163 0
w 179 -178 -163 0
w 180 179 164 0
w 180 179 -164 0
w 180 -179 164 0
w 180 -179 -164 1
w 181 180 165 0
w 181 180 -165 1
w 181 -180 165 1
w 181 -180 -165 1
w 182 181 166 1
w 182 181 -166 1
w 182 -181 166 1
w 182 -181 -166 0
w 183 182 167 1
w 183 182 -167 0
w 183 -182 167 1
w 183 -182 -167 1
w 184 183 168 1
w 184 183 -168 0
w 184 -183 168 0
w 184 -183 -168 1
w 185 184 169 0.946939
w 185 184 -169 0.155111
w 185 -184 169 0.400641
w 185 -184 -169 0.0805363
w 186 185 170 0
w 186 185 -170 0
w 186 -185 170 0
w 186 -185 -170 1
w 187 186 171 1
w 187 186 -171 1
w 187 -186 171 0
w 187 -186 -171 1
w 188 187 172 0.957776
w 188 187 -172 0.803782
w 188 -187 172 0.73479
w 188 -187 -172 0.867054
w 189 188 173 0.944501
w 189 188 -173 0.901147
w 189 -188 173 0.160998
w 189 -188 -173 0.564798
w 190 189 174 0
w 190 189 -174 1
w 190 -189 174 0
w 190 -189 -174 1
w 191 190 175 0
w 191 190 -175 0
w 191 -190 175 1
w 191 -190 -175 1
w 192 191 176 0
w 192 191 -176 1
w 192 -191 176 0
w 192 -191 -176 0
w 193 177 1
w 193 -177 0
w 194 193 178 0
w 194 193 -178 1
w 194 -193 178 0
w 194 -193 -178 0
w 195 194 179 0
w 195 194 -179 1
w 195 -194 179 0
w 195 -194 -179 0
w 196 195 180 1
w 196 195 -180 0
w 196 -195 180 0
w 196 -195 -180 0
w 197 196 181 0
w 197 196 -181 1
w 197 -196 181 1
w 197 -196 -181 1
w 198 197 182 0
w 198 197 -182 0
w 198 -197 182 1
w 198 -197 -182 0
w 199 198 183 1
w 199 198 -183 1
w 199 -198 183 0
w 199 -198 -183 1
w 200 199 184 1
w 200 199 -184 0
w 200 -199 184 1
w 200 -199 -184 0
w 201 200 185 1
w 201 200 -185 0
w 201 -200 185 0
w 201 -200 -185 1
w 202 201 186 1
w 202 201 -186 0
w 202 -201 186 1
w 202 -201 -186 0
w 203 202 187 0
w 203 202 -187 1
w 203 -202 187 1
w 203 -202 -187 0
w 204 203 188 1
w 204 203 -188 0
w 204 -203 188 0
w 204 -203 -188 1
w 205 204 189 1
w 205 204 -189 0
w 205 -204 189 1
w 205 -204 -189 0
w 206 205 190 0.256468
w 206 205 -190 0.868595
w 206 -205 190 0.192119
w 206 -205 -190 0.426563
w 207 206 191 1
w 207 206 -191 1
w 207 -206 191 0
w 207 -206 -191 1
w 208 207 192 0
w 208 207 -192 0
w 208 -207 192 1
w 208 -207 -192 0
w 209 193 0
w 209 -193 1
w 210 209 194 0
w 210 209 -194 0
w 210 -209 194 1
w 210 -209 -194 0
w 211 210 195 0
w 211 210 -195 0
w 211 -210 195 1
w 211 -210 -195 1
w 212 211 196 1
w 212 211 -196 1
w 212 -211 196 1
w 212 -211 -196 0
w 213 212 197 0.176279
w 213 212 -197 0.922562
w 213 -212 197 0.704492
w 213 -212 -197 0.650268
w 214 213 198 0
w 214 213 -198 0
w 214 -213 198 1
w 214 -213 -198 1
w 215 214 199 1
w 215 214 -199 1
w 215 -214 199 0
w 215 -214 -199 1
w 216 215 200 0.479414
w 216 215 -200 0.243063
w 216 -215 200 0.783449
w 216 -215 -200 0.848225
w 217 216 201 1
w 217 216 -201 1
w 217 -216 201 1
w 217 -216 -201 0
w 218 217 202 0
w 218 217 -202 1
w 218 -217 202 0
w 218 -217 -202 1
w 219 218 203 0
w 219 218 -203 1
w 219 -218 203 0
w 219 -218 -203 1
w 220 219 204 0
w 220 219 -204 1
w 220 -219 204 1
w 220 -219 -204 1
w 221 220 205 1
w 221 220 -205 0
w 221 -220 205 0
w 221 -220 -205 0
w 222 221 206 1
w 222 221 -206 0
w 222 -221 206 0
w 222 -221 -206 1
w 223 222 207 1
w 223 222 -207 0
w 223 -222 207 0
w 223 -222 -207 0
w 224 223 208 1
w 224 223 -208 0
w 224 -223 208 0
w 224 -223 -208 1
w 225 209 0
w 225 -209 1
w 226 225 210 0.936279
w 226 225 -210 0.836322
w 226 -225 210 0.653082
w 226 -225 -210 0.941001
w 227 226 211 1
w 227 226 -211 1
w 227 -226 211 0
w 227 -226 -211 0
w 228 227 212 1
w 228 227 -212 0
w 228 -227 212 0
w 228 -227 -212 0
w 229 228 213 0
w 229 228 -213 1
w 229 -228 213 0
w 229 -228 -213 1
w 230 229 214 1
w 230 229 -214 0
w 230 -229 214 1
w 230 -229 -214 0
w 231 230 215 0.446411
w 231 230 -215 0.205847
w 231 -230 215 0.582594
w 231 -230 -215 0.0282365
w 232 231 216 1
w 232 231 -216 0
w 232 -231 216 1
w 232 -231 -216 1
w 233 232 217 0.981729
w 233 232 -217 0.852432
w 233 -232 217 0.0612522
w 233 -232 -217 0.632567
w 234 233 218 0.153199
w 234 233 -218 0.883588
w 234 -233 218 0.15064
w 234 -233 -218 0.925792
w 235 234 219 0
w 235 234 -219 0
w 235 -234 219 1
w 235 -234 -219 0
w 236 235 220 0.49653
w 236 235 -220 0.970234
w 236 -235 220 0.479477
w 236 -235 -220 0.539291
w 237 236 221 1
w 237 236 -221 0
w 237 -236 221 0
w 237 -236 -221 1
w 238 237 222 0
w 238 237 -222 0
w 238 -237 222 1
w 238 -237 -222 1
w 239 238 223 1
w 239 238 -223 1
w 239 -238 223 1
w 239 -238 -223 0
w 240 239 224 0
w 240 239 -224 1
w 240 -239 224 1
w 240 -239 -224 0
w 241 225 1
w 241 -225 0
w 242 241 226 0.88266
w 242 241 -226 0.871908
w 242 -241 226 0.391879
w 242 -241 -226 0.682046
w 243 242 227 0
w 243 242 -227 0
w 243 -242 227 0
w 243 -242 -227 1
w 244 243 228 0.617547
w 244 243 -228 0.686244
w 244 -243 228 0.907369
w 244 -243 -228 0.586557
w 245 244 229 0
w 245 244 -229 0
w 245 -244 229 1
w 245 -244 -229 1
w 246 245 230 0
w 246 245 -230 1
w 246 -245 230 1
w 246 -245 -230 0
w 247 246 231 0.855277
w 247 246 -231 0.356918
w 247 -246 231 0.837653
w 247 -246 -231 0.298227
w 248 247 232 0
w 248 247 -232 1
w 248 -247 232 0
w 248 -247 -232 0
w 249 248 233 1
w 249 248 -233 0
w 249 -248 233 1
w 249 -248 -233 1
w 250 249 234 0
w 250 249 -234 1
w 250 -249 234 1
w 250 -249 -234 1
w 251 250 235 1
w 251 250 -235 0
w 251 -250 235 1
w 251 -250 -235 0
w 252 251 236 0.291555
w 252 251 -236 0.246593
w 252 -251 236 0.617735
w 252 -251 -236 0.105246
w 253 252 237 0
w 253 252 -237 1
w 253 -252 237 0
w 253 -252 -237 0
w 254 253 238 0
w 254 253 -238 1
w 254 -253 238 1
w 254 -253 -238 0
w 255 254 239 0
w 255 254 -239 1
w 255 -254 239 0
w 255 -254 -239 1
w 256 255 240 1
w 256 255 -240 1
w 256 -255 240 1
w 256 -255 -240 0